p wcnf 120 1200
7 -112 -119 0
4 -112 -115 0
8 -110 -120 0
2 -110 -119 0
9 -109 -112 0
8 -109 -111 0
9 -108 113 0
6 -108 116 0
6 -107 115 0
1 -106 -114 0
2 -105 -115 0
9 -104 118 0
5 -102 -109 0
10 -102 -107 0
9 -102 109 0
4 -100 -102 0
7 -100 106 0
7 -99 105 0
3 -98 -120 0
5 -98 109 0
7 -98 118 0
3 -97 -120 0
7 -97 114 0
4 -96 -108 0
3 -96 -101 0
6 -96 97 0
7 -96 102 0
5 -95 -112 0
9 -95 -109 0
3 -95 -102 0
6 -95 96 0
5 -95 105 0
6 -95 106 0
4 -94 118 0
6 -93 104 0
5 -93 117 0
2 -92 106 0
5 -91 -103 0
10 -91 114 0
7 -90 -108 0
5 -90 -101 0
1 -90 101 0
6 -88 -118 0
9 -88 90 0
10 -88 104 0
6 -87 -101 0
3 -86 -101 0
7 -86 -96 0
2 -86 102 0
5 -86 114 0
1 -85 -107 0
9 -85 88 0
7 -85 92 0
7 -85 103 0
2 -85 114 0
9 -84 -118 0
4 -84 -115 0
8 -83 -113 0
4 -82 -112 0
3 -82 -99 0
2 -82 94 0
9 -82 118 0
7 -81 -112 0
7 -81 82 0
3 -81 83 0
3 -81 94 0
2 -81 113 0
3 -81 116 0
7 -80 -82 0
1 -79 -106 0
9 -79 -96 0
1 -79 -84 0
2 -79 93 0
6 -78 -120 0
9 -78 -111 0
1 -78 -103 0
1 -77 -116 0
2 -77 -115 0
7 -77 -101 0
3 -77 -90 0
7 -77 99 0
8 -76 -119 0
1 -76 -113 0
4 -76 -81 0
5 -76 81 0
3 -75 -116 0
3 -75 -115 0
8 -75 -113 0
1 -75 -111 0
6 -75 -109 0
9 -75 -93 0
2 -75 95 0
5 -75 118 0
6 -74 -88 0
8 -74 78 0
7 -74 86 0
8 -74 120 0
9 -73 -102 0
9 -73 112 0
5 -72 -107 0
9 -72 84 0
8 -72 108 0
5 -72 111 0
9 -71 -117 0
4 -71 -108 0
4 -71 -101 0
10 -71 -87 0
4 -71 72 0
6 -71 103 0
7 -70 -118 0
6 -70 -112 0
2 -70 -106 0
5 -70 -103 0
6 -70 -83 0
5 -70 -82 0
8 -70 -71 0
8 -70 77 0
7 -70 93 0
6 -70 105 0
8 -69 -120 0
4 -69 76 0
5 -69 106 0
9 -69 108 0
7 -68 -100 0
1 -68 -72 0
7 -68 82 0
4 -67 -114 0
9 -67 99 0
5 -65 -119 0
3 -65 -85 0
3 -65 88 0
4 -65 98 0
1 -65 104 0
7 -65 120 0
3 -64 -98 0
4 -64 85 0
2 -63 -93 0
3 -63 -91 0
7 -63 -72 0
6 -63 71 0
9 -63 90 0
3 -63 99 0
8 -63 118 0
4 -62 91 0
8 -61 -118 0
3 -61 -115 0
2 -61 -88 0
5 -61 -81 0
9 -61 -67 0
7 -60 -113 0
3 -60 -91 0
2 -60 -75 0
3 -60 63 0
2 -60 68 0
9 -60 107 0
3 -60 108 0
8 -60 119 0
3 -59 -104 0
2 -59 -88 0
3 -59 64 0
5 -59 78 0
4 -59 85 0
7 -59 95 0
5 -59 99 0
1 -59 111 0
9 -58 -113 0
8 -58 60 0
2 -58 64 0
2 -57 -110 0
5 -57 -89 0
8 -57 60 0
1 -57 72 0
6 -57 102 0
5 -56 -88 0
4 -56 -80 0
4 -56 -70 0
7 -56 -65 0
5 -56 74 0
8 -56 84 0
6 -55 -100 0
3 -55 102 0
2 -55 104 0
7 -54 -89 0
4 -54 -87 0
3 -54 -63 0
6 -54 59 0
6 -54 63 0
10 -54 77 0
8 -54 84 0
7 -54 88 0
3 -54 89 0
3 -54 94 0
10 -53 -117 0
9 -53 -92 0
7 -53 -84 0
10 -53 -71 0
8 -53 -70 0
4 -53 -56 0
2 -53 69 0
9 -53 77 0
8 -53 97 0
9 -52 -117 0
10 -52 -114 0
4 -52 -101 0
4 -52 -87 0
4 -52 -83 0
7 -52 -76 0
9 -52 89 0
8 -52 93 0
6 -52 116 0
5 -51 -111 0
1 -51 -87 0
6 -51 83 0
2 -51 102 0
4 -50 -119 0
8 -50 -114 0
7 -50 -102 0
10 -50 -97 0
8 -50 -92 0
5 -50 117 0
6 -49 -116 0
1 -49 -97 0
7 -49 -76 0
6 -49 -69 0
9 -49 72 0
3 -49 89 0
6 -49 93 0
7 -49 99 0
7 -48 -111 0
7 -48 -108 0
6 -48 -97 0
5 -48 -84 0
5 -48 -74 0
6 -48 -56 0
8 -48 59 0
8 -48 61 0
9 -47 -120 0
5 -47 -103 0
7 -47 -75 0
7 -47 -64 0
10 -47 48 0
2 -47 60 0
7 -47 75 0
6 -47 93 0
3 -47 95 0
2 -46 -64 0
4 -46 -54 0
8 -45 -102 0
1 -45 -87 0
2 -45 -82 0
3 -45 -57 0
7 -45 54 0
3 -45 67 0
9 -45 68 0
2 -45 85 0
2 -45 92 0
3 -45 118 0
7 -44 -109 0
8 -44 -71 0
8 -44 -60 0
4 -44 -54 0
5 -44 50 0
3 -44 86 0
8 -43 -92 0
10 -43 -83 0
1 -43 -50 0
6 -43 56 0
9 -43 61 0
5 -43 70 0
2 -42 -102 0
6 -42 -88 0
4 -42 -60 0
3 -42 64 0
4 -42 65 0
9 -42 108 0
5 -41 -97 0
5 -41 -96 0
3 -41 -92 0
3 -41 -82 0
5 -41 -47 0
5 -41 -45 0
6 -41 51 0
1 -41 61 0
7 -41 84 0
5 -41 92 0
3 -40 -119 0
8 -40 -94 0
6 -40 -48 0
8 -40 60 0
6 -39 -113 0
4 -39 -94 0
2 -39 -80 0
10 -39 -72 0
7 -39 -59 0
9 -39 63 0
10 -39 64 0
7 -39 85 0
4 -38 -110 0
9 -38 -92 0
2 -38 -88 0
6 -38 -85 0
5 -38 -47 0
5 -38 61 0
8 -38 81 0
8 -38 110 0
4 -37 -114 0
3 -37 -96 0
3 -37 -94 0
7 -37 -71 0
5 -37 76 0
6 -37 77 0
2 -37 95 0
10 -37 115 0
7 -37 120 0
7 -36 -87 0
4 -36 -60 0
8 -36 53 0
5 -36 83 0
9 -35 -102 0
7 -35 -101 0
10 -35 -91 0
4 -35 -85 0
8 -35 69 0
10 -35 74 0
10 -34 -119 0
7 -34 -91 0
10 -34 -88 0
6 -34 -51 0
10 -34 -46 0
9 -34 72 0
7 -34 78 0
6 -33 -94 0
4 -33 -88 0
2 -33 -57 0
4 -33 100 0
2 -33 111 0
5 -32 -99 0
6 -32 -94 0
3 -32 -91 0
2 -32 -79 0
10 -32 -51 0
9 -32 56 0
3 -32 72 0
10 -31 -66 0
5 -31 -44 0
9 -31 37 0
4 -31 55 0
4 -31 63 0
4 -31 67 0
3 -31 81 0
10 -30 -115 0
4 -30 -107 0
6 -30 -103 0
8 -30 -73 0
4 -30 -70 0
6 -30 -61 0
4 -30 -38 0
4 -30 32 0
2 -30 46 0
4 -30 75 0
2 -30 100 0
8 -30 111 0
9 -29 -109 0
5 -29 -106 0
9 -29 -98 0
3 -29 -86 0
6 -29 -58 0
4 -29 -56 0
7 -29 -49 0
8 -29 -48 0
5 -29 -36 0
7 -29 48 0
7 -29 67 0
8 -29 110 0
7 -28 -77 0
2 -28 -37 0
7 -28 -29 0
10 -28 45 0
5 -28 65 0
1 -28 115 0
3 -27 -95 0
5 -27 -57 0
4 -27 -42 0
8 -27 44 0
2 -27 64 0
7 -27 89 0
4 -27 93 0
6 -26 -94 0
1 -26 -80 0
4 -26 -73 0
9 -26 -69 0
3 -26 -62 0
2 -26 -57 0
8 -26 50 0
7 -26 103 0
10 -25 -113 0
10 -25 -99 0
3 -25 -88 0
4 -25 -82 0
7 -25 -72 0
2 -25 -51 0
8 -25 -42 0
4 -25 -33 0
8 -25 40 0
6 -25 103 0
1 -24 -104 0
9 -24 -29 0
3 -24 37 0
10 -24 46 0
4 -24 59 0
3 -24 61 0
3 -24 93 0
8 -24 98 0
6 -24 115 0
10 -24 120 0
10 -23 -115 0
4 -23 -99 0
3 -23 -87 0
6 -23 -73 0
4 -23 43 0
7 -23 92 0
4 -23 120 0
6 -22 -111 0
8 -22 -107 0
2 -22 -72 0
3 -22 -60 0
7 -22 -44 0
2 -22 -40 0
6 -22 73 0
1 -22 76 0
8 -22 100 0
6 -21 -111 0
8 -21 -89 0
2 -21 -85 0
4 -21 -79 0
4 -21 -74 0
2 -21 -62 0
3 -21 -30 0
6 -21 37 0
2 -21 53 0
6 -21 64 0
8 -21 103 0
3 -20 -65 0
5 -20 -26 0
4 -20 54 0
3 -20 97 0
5 -19 -91 0
7 -19 -73 0
5 -19 25 0
9 -19 26 0
2 -19 28 0
2 -19 32 0
4 -19 101 0
7 -19 115 0
8 -19 116 0
5 -18 -99 0
9 -18 -56 0
6 -18 -21 0
6 -18 24 0
5 -18 29 0
6 -18 57 0
4 -18 66 0
10 -18 109 0
4 -18 120 0
5 -17 -40 0
4 -17 24 0
7 -17 65 0
7 -17 73 0
5 -17 116 0
3 -16 -31 0
7 -15 -116 0
2 -15 -98 0
1 -15 -68 0
10 -15 -61 0
6 -15 -34 0
5 -15 19 0
3 -15 30 0
9 -15 43 0
2 -15 45 0
7 -15 87 0
8 -15 100 0
3 -15 106 0
8 -14 -118 0
2 -14 -98 0
9 -14 -75 0
6 -14 -61 0
6 -14 -41 0
8 -14 -29 0
2 -14 -17 0
2 -14 62 0
3 -14 64 0
6 -14 96 0
5 -14 100 0
2 -14 108 0
10 -13 -120 0
10 -13 -118 0
5 -13 -94 0
7 -13 -48 0
6 -13 -47 0
9 -13 -24 0
9 -13 -23 0
4 -13 -19 0
1 -13 21 0
10 -13 42 0
3 -13 49 0
6 -13 55 0
4 -13 59 0
5 -13 84 0
5 -13 103 0
6 -13 120 0
2 -12 -64 0
3 -12 -43 0
8 -12 -15 0
8 -12 29 0
5 -12 33 0
6 -12 45 0
4 -12 46 0
10 -12 53 0
4 -12 71 0
5 -12 79 0
2 -12 106 0
6 -11 -84 0
1 -11 -67 0
7 -11 -64 0
7 -11 -55 0
10 -11 -45 0
6 -11 -34 0
2 -11 34 0
7 -11 49 0
2 -11 74 0
1 -11 85 0
6 -10 -109 0
5 -10 -107 0
1 -10 -101 0
6 -10 -70 0
7 -10 -47 0
6 -10 -11 0
9 -10 17 0
3 -10 26 0
1 -10 53 0
5 -10 54 0
4 -10 100 0
4 -9 -113 0
3 -9 -65 0
2 -9 -34 0
7 -9 87 0
8 -9 88 0
5 -9 113 0
7 -8 -12 0
2 -8 26 0
9 -8 72 0
8 -8 75 0
7 -8 82 0
10 -8 86 0
5 -8 106 0
4 -8 110 0
10 -8 113 0
1 -8 118 0
5 -7 -84 0
7 -7 -49 0
3 -7 -35 0
5 -7 -28 0
3 -7 -14 0
7 -7 -11 0
6 -7 38 0
7 -7 43 0
4 -7 52 0
2 -7 54 0
6 -7 104 0
6 -7 116 0
2 -6 -106 0
1 -6 -90 0
8 -6 -61 0
4 -6 -60 0
3 -6 -43 0
9 -6 -19 0
2 -6 52 0
10 -6 70 0
5 -6 92 0
8 -6 100 0
2 -5 -111 0
4 -5 -69 0
6 -5 -39 0
9 -5 -36 0
4 -5 -32 0
2 -5 -13 0
3 -5 22 0
3 -5 57 0
2 -5 59 0
7 -5 63 0
9 -5 80 0
4 -5 104 0
3 -4 -117 0
2 -4 -92 0
10 -4 -85 0
7 -4 -71 0
8 -4 -45 0
4 -4 -24 0
8 -4 -13 0
4 -4 16 0
9 -4 53 0
9 -4 62 0
4 -4 63 0
7 -4 67 0
4 -4 92 0
6 -4 98 0
7 -3 -61 0
4 -3 -37 0
6 -3 -16 0
1 -3 -12 0
2 -3 23 0
8 -3 25 0
4 -3 28 0
8 -3 31 0
6 -3 41 0
7 -3 53 0
8 -3 56 0
8 -3 79 0
10 -3 107 0
9 -2 -111 0
5 -2 -106 0
9 -2 47 0
3 -2 53 0
7 -2 72 0
9 -1 -54 0
3 -1 -12 0
4 -1 -4 0
7 -1 10 0
6 -1 18 0
2 -1 37 0
1 -1 48 0
5 -1 70 0
1 1 -115 0
5 1 -89 0
2 1 -78 0
4 1 -70 0
1 1 -65 0
8 1 -15 0
7 1 53 0
6 1 92 0
8 1 112 0
9 2 -85 0
4 2 -61 0
3 2 -47 0
6 2 -44 0
9 2 -23 0
9 2 56 0
4 2 109 0
8 3 -112 0
9 3 -38 0
3 3 -29 0
3 3 -28 0
7 3 -22 0
5 3 5 0
9 3 7 0
7 3 109 0
7 3 113 0
3 4 -116 0
4 4 -91 0
3 4 -80 0
4 4 -72 0
4 4 -54 0
6 4 -48 0
4 4 7 0
8 4 28 0
8 5 -100 0
7 5 -79 0
8 5 -58 0
5 5 -38 0
5 5 -27 0
4 5 58 0
3 5 62 0
3 6 -104 0
8 6 -52 0
5 6 -18 0
8 6 56 0
7 6 72 0
4 7 -99 0
2 7 -69 0
5 7 -24 0
3 7 56 0
5 7 97 0
6 8 -115 0
9 8 -108 0
9 8 -43 0
5 8 -25 0
6 8 29 0
6 8 75 0
7 8 95 0
8 8 98 0
8 8 105 0
10 8 120 0
2 9 -108 0
4 9 26 0
4 9 28 0
9 9 34 0
2 9 64 0
1 9 76 0
7 9 80 0
6 9 114 0
5 10 -87 0
1 10 -77 0
8 10 -57 0
7 10 -48 0
8 10 34 0
3 10 40 0
5 10 42 0
5 10 75 0
6 10 84 0
7 10 107 0
8 11 -114 0
8 11 -102 0
1 11 -91 0
5 11 -87 0
7 11 -83 0
9 11 -75 0
9 11 -62 0
3 11 -56 0
5 11 -53 0
5 11 -32 0
1 11 67 0
3 11 89 0
5 11 109 0
3 11 114 0
6 12 -108 0
8 12 -65 0
2 12 -47 0
6 12 69 0
8 12 81 0
8 12 101 0
2 13 -113 0
3 13 -102 0
8 13 -81 0
10 13 -58 0
9 13 40 0
6 13 53 0
3 13 86 0
5 14 -116 0
10 14 -51 0
8 14 46 0
1 14 55 0
8 14 81 0
6 15 -74 0
2 15 -72 0
3 15 -47 0
3 15 42 0
10 15 47 0
2 15 48 0
5 15 51 0
5 15 98 0
6 15 99 0
5 15 100 0
7 16 -94 0
1 16 -65 0
7 16 -52 0
3 16 -26 0
8 16 118 0
7 17 -107 0
8 17 -64 0
7 17 -26 0
5 17 58 0
9 17 64 0
9 17 93 0
3 17 103 0
9 17 104 0
8 17 106 0
8 17 114 0
2 17 119 0
3 18 -108 0
8 18 -63 0
10 18 -51 0
3 18 -40 0
6 18 22 0
6 18 86 0
3 18 89 0
8 18 95 0
9 19 -98 0
3 19 -91 0
9 19 -39 0
4 19 -37 0
8 19 20 0
5 19 36 0
8 19 61 0
4 19 88 0
6 19 107 0
4 20 -118 0
6 20 -111 0
4 20 -110 0
2 20 -81 0
4 20 -64 0
10 20 -58 0
6 20 -25 0
4 20 43 0
9 20 87 0
8 20 90 0
3 20 114 0
7 21 -110 0
6 21 -28 0
4 21 41 0
9 21 48 0
4 21 49 0
4 21 76 0
2 21 86 0
9 21 113 0
9 21 116 0
4 22 -74 0
7 22 -59 0
7 22 -56 0
6 22 -49 0
6 22 -25 0
1 22 37 0
4 22 39 0
1 22 77 0
8 22 100 0
7 22 110 0
6 23 -109 0
2 23 -42 0
4 23 -36 0
9 23 75 0
3 23 85 0
7 23 86 0
9 23 95 0
7 24 -99 0
9 24 -96 0
8 24 -34 0
5 24 -32 0
2 24 -31 0
5 24 -26 0
10 24 30 0
5 24 49 0
3 24 72 0
3 24 99 0
8 24 112 0
4 25 -99 0
2 25 -80 0
7 25 -66 0
7 25 -30 0
8 25 27 0
4 25 30 0
3 26 -101 0
3 26 -81 0
4 26 53 0
6 26 72 0
4 26 78 0
2 27 -106 0
4 27 -89 0
8 27 -59 0
3 27 35 0
6 27 47 0
7 27 56 0
5 27 89 0
3 27 116 0
6 28 -101 0
2 28 -78 0
3 28 -73 0
4 28 -67 0
6 28 -36 0
4 28 -34 0
8 28 48 0
5 28 64 0
8 28 76 0
1 28 79 0
8 28 101 0
5 29 -86 0
4 29 -81 0
8 29 42 0
2 29 51 0
1 29 52 0
6 29 70 0
5 29 84 0
4 29 98 0
9 29 103 0
8 29 116 0
9 29 117 0
2 30 -110 0
9 30 -92 0
3 30 -85 0
10 30 -77 0
2 30 -64 0
8 30 -39 0
7 30 39 0
5 30 49 0
2 31 -100 0
3 31 -84 0
6 31 -64 0
3 31 55 0
6 31 91 0
2 31 101 0
6 32 -103 0
4 32 -92 0
7 32 36 0
3 32 58 0
4 32 65 0
4 32 72 0
8 32 91 0
8 32 97 0
3 32 105 0
8 32 116 0
8 33 -43 0
8 33 82 0
3 33 87 0
1 33 105 0
6 34 -103 0
1 34 -70 0
9 34 -65 0
7 34 -57 0
9 34 -37 0
2 34 41 0
7 34 43 0
10 35 -104 0
10 35 -97 0
4 35 -68 0
5 35 -42 0
1 35 -38 0
6 35 66 0
2 35 70 0
3 35 85 0
2 35 92 0
3 35 119 0
8 36 -111 0
6 36 -97 0
8 36 -82 0
10 36 -63 0
9 36 -41 0
3 36 43 0
7 36 49 0
6 36 58 0
4 36 72 0
6 37 -105 0
4 37 -100 0
2 37 -73 0
8 37 -57 0
4 37 -46 0
7 37 38 0
8 37 47 0
4 37 60 0
4 37 61 0
7 37 69 0
5 37 117 0
1 38 -76 0
7 38 -41 0
4 38 40 0
4 38 56 0
3 38 57 0
5 38 67 0
9 38 69 0
4 38 120 0
7 39 -117 0
2 39 -109 0
6 39 -93 0
4 39 -78 0
6 39 -64 0
4 39 49 0
4 39 107 0
5 40 -117 0
6 40 -82 0
2 40 -43 0
2 40 57 0
9 40 79 0
7 40 87 0
5 40 99 0
10 41 -106 0
5 41 79 0
8 41 105 0
7 41 107 0
3 42 -69 0
2 42 -47 0
1 42 52 0
10 42 56 0
6 42 66 0
1 42 78 0
7 43 -103 0
9 43 67 0
4 43 71 0
9 43 76 0
4 43 100 0
4 43 119 0
3 44 -107 0
9 44 -106 0
4 44 -66 0
7 44 -46 0
4 44 71 0
10 44 73 0
1 44 110 0
7 45 -110 0
5 45 -53 0
6 45 117 0
8 46 -118 0
5 46 -86 0
5 46 -83 0
5 47 -111 0
9 47 -106 0
4 47 -51 0
8 47 54 0
7 47 91 0
10 48 -107 0
2 48 -56 0
8 48 69 0
10 48 73 0
1 48 78 0
3 48 103 0
1 48 112 0
7 49 -116 0
2 49 -91 0
5 49 -73 0
6 49 54 0
5 49 72 0
8 49 117 0
8 50 -117 0
4 50 -67 0
2 50 55 0
5 50 66 0
7 50 117 0
1 51 -113 0
6 51 63 0
4 51 97 0
5 51 114 0
2 52 -84 0
2 52 -80 0
9 52 -78 0
5 52 -63 0
6 52 -56 0
8 52 70 0
9 52 106 0
4 53 -120 0
5 53 54 0
9 53 73 0
5 53 93 0
3 53 105 0
9 54 -117 0
5 54 -84 0
5 54 66 0
9 54 120 0
2 55 -102 0
6 55 78 0
4 55 79 0
7 56 -119 0
1 56 -103 0
1 56 -88 0
5 57 -112 0
4 57 -79 0
2 57 -60 0
9 57 60 0
2 57 67 0
3 57 69 0
5 57 76 0
5 57 93 0
7 57 97 0
5 57 108 0
6 58 -102 0
6 58 -99 0
10 58 70 0
2 58 96 0
4 58 97 0
8 58 108 0
5 59 67 0
8 59 68 0
7 59 79 0
9 59 119 0
1 60 -97 0
6 60 -88 0
3 60 76 0
5 60 117 0
5 61 -96 0
4 61 83 0
1 61 89 0
8 61 90 0
2 61 113 0
1 62 -111 0
8 62 -107 0
6 62 -71 0
5 62 67 0
9 63 -78 0
5 63 70 0
5 63 74 0
2 63 112 0
9 64 -110 0
9 64 -68 0
8 65 -83 0
4 65 -80 0
5 65 -74 0
4 65 -73 0
4 65 67 0
6 65 116 0
7 65 117 0
2 66 -105 0
9 66 -88 0
5 66 -87 0
8 66 -78 0
8 66 -68 0
5 66 72 0
4 66 73 0
1 66 86 0
9 67 -88 0
8 67 -76 0
5 67 115 0
10 68 -119 0
5 68 89 0
5 70 -95 0
1 70 -82 0
3 70 -72 0
1 70 107 0
5 71 -92 0
2 71 -76 0
5 71 111 0
10 72 -119 0
3 72 -105 0
4 72 -100 0
9 72 -96 0
1 72 84 0
7 72 119 0
4 73 -119 0
4 73 -94 0
10 73 -93 0
8 73 -82 0
10 73 95 0
2 74 78 0
7 74 99 0
5 75 -115 0
9 75 84 0
5 76 -102 0
9 76 -95 0
4 76 116 0
6 77 -116 0
9 77 -105 0
1 77 -82 0
9 77 87 0
8 77 92 0
6 78 -114 0
5 78 -102 0
9 78 -99 0
8 78 97 0
5 78 107 0
4 79 -115 0
9 79 -111 0
9 79 -106 0
3 79 -100 0
3 79 -84 0
3 79 81 0
2 80 -90 0
3 80 -81 0
9 81 -118 0
4 81 115 0
6 82 104 0
8 83 -96 0
3 83 90 0
5 83 91 0
9 83 93 0
9 83 104 0
9 84 -117 0
9 84 100 0
4 84 118 0
8 84 120 0
2 86 -110 0
9 86 94 0
7 86 117 0
3 87 -94 0
9 88 -95 0
6 88 89 0
8 88 118 0
3 89 -114 0
4 89 -113 0
6 89 -93 0
7 89 106 0
7 89 109 0
5 89 115 0
6 90 -99 0
9 91 -117 0
7 91 -107 0
8 91 -104 0
1 91 -103 0
9 91 115 0
7 92 -119 0
5 92 -116 0
4 92 -102 0
5 93 -110 0
6 94 -109 0
8 94 102 0
4 95 114 0
5 96 -109 0
8 96 108 0
3 96 113 0
9 96 116 0
6 99 -118 0
5 100 102 0
8 100 120 0
3 101 117 0
7 102 104 0
7 103 -119 0
8 103 -113 0
4 104 108 0
9 105 -110 0
2 107 -113 0
9 108 -109 0
6 114 117 0
9 115 117 0
4 116 -120 0
3 116 117 0
8 116 118 0
10 116 119 0
